c Result of efficient AIG-to-CNF conversion using package CNF
p cnf 702 2480
-2 3 -683 0
-2 3 568 675 0
2 -3 0
2 -568 683 0
2 -675 683 0
3 -4 -300 -565 0
3 -300 -533 -565 0
3 -4 -533 -565 0
-3 4 300 0
-3 300 533 0
-3 565 0
-3 4 533 0
-4 5 18 0
4 -5 0
4 -18 0
5 -6 -7 0
5 -6 -8 0
-5 6 0
-5 7 8 0
6 -693 -701 0
-6 693 0
-6 701 0
7 -692 -700 0
-7 692 0
-7 700 0
8 -9 -12 0
-8 9 0
-8 12 0
-9 -10 -11 0
-9 10 11 0
9 10 -11 0
9 -10 11 0
10 -692 -701 0
-10 692 0
-10 701 0
11 -693 -700 0
-11 693 0
-11 700 0
-12 13 14 0
12 -13 0
12 -14 0
13 -691 -693 -699 -701 0
-13 701 0
-13 691 0
-13 699 0
-13 693 0
14 -7 -15 0
-14 7 0
-14 15 0
15 16 -17 0
15 -16 17 0
-15 -16 -17 0
-15 16 17 0
16 -693 -699 0
-16 693 0
-16 699 0
17 -691 -701 0
-17 691 0
-17 701 0
18 -19 -299 0
-18 19 0
-18 299 0
-19 20 45 0
19 -20 0
19 -45 0
20 -21 -44 0
-20 21 0
-20 44 0
-21 22 30 0
21 -22 0
21 -30 0
22 -23 -29 0
-22 23 0
-22 29 0
-23 24 25 0
23 -24 0
23 -25 0
24 -690 -693 -698 -701 0
-24 701 0
-24 690 0
-24 698 0
-24 693 0
25 -692 -699 -26 0
-25 692 0
-25 699 0
-25 26 0
26 27 -28 0
26 -27 28 0
-26 -27 -28 0
-26 27 28 0
27 -690 -701 0
-27 690 0
-27 701 0
28 -693 -698 0
-28 693 0
-28 698 0
29 7 -15 0
29 -7 15 0
-29 -7 -15 0
-29 7 15 0
30 -31 -43 0
-30 31 0
-30 43 0
-31 32 35 0
31 -32 0
31 -35 0
32 -691 -700 -33 0
-32 691 0
-32 700 0
-32 33 0
33 34 -26 0
33 -34 26 0
-33 -34 -26 0
-33 34 26 0
34 -692 -699 0
-34 692 0
-34 699 0
35 -36 -41 0
-35 36 0
-35 41 0
-36 37 38 0
-36 37 39 0
36 -37 0
36 -38 -39 0
37 -689 -693 -697 -701 0
-37 701 0
-37 689 0
-37 697 0
-37 693 0
38 -692 -698 0
-38 692 0
-38 698 0
-39 689 40 0
-39 701 40 0
39 -40 0
39 -689 -701 0
40 -693 -697 0
-40 693 0
-40 697 0
41 42 -33 0
41 -42 33 0
-41 -42 -33 0
-41 42 33 0
42 -691 -700 0
-42 691 0
-42 700 0
43 23 -29 0
43 -23 29 0
-43 -23 -29 0
-43 23 29 0
44 -9 12 0
44 9 -12 0
-44 9 12 0
-44 -9 -12 0
45 -46 -298 0
-45 46 0
-45 298 0
-46 47 83 0
46 -47 0
46 -83 0
47 -48 -82 0
-47 48 0
-47 82 0
-48 49 59 0
48 -49 0
48 -59 0
49 -50 -58 0
-49 50 0
-49 58 0
-50 51 55 0
50 -51 0
50 -55 0
51 -690 -700 -52 0
-51 690 0
-51 700 0
-51 52 0
52 38 -53 0
52 -38 53 0
-52 -38 -53 0
-52 38 53 0
53 54 -40 0
53 -54 40 0
-53 -54 -40 0
-53 54 40 0
54 -689 -701 0
-54 689 0
-54 701 0
55 -691 -699 -56 0
-55 691 0
-55 699 0
-55 56 0
56 57 -52 0
56 -57 52 0
-56 -57 -52 0
-56 57 52 0
57 -690 -700 0
-57 690 0
-57 700 0
58 36 -41 0
58 -36 41 0
-58 -36 -41 0
-58 36 41 0
59 -60 -81 0
-59 60 0
-59 81 0
-60 61 71 0
60 -61 0
60 -71 0
61 -62 -69 0
-61 62 0
-61 69 0
-62 63 66 0
62 -63 0
62 -66 0
63 -688 -701 -64 0
-63 688 0
-63 701 0
-63 64 0
64 -696 -65 0
-64 696 0
-64 65 0
65 -692 -693 -694 -695 0
-65 695 0
-65 692 0
-65 694 0
-65 693 0
66 -693 -696 -67 0
-66 693 0
-66 696 0
-66 67 0
67 68 -64 0
67 -68 64 0
-67 -68 -64 0
-67 68 64 0
68 -688 -701 0
-68 688 0
-68 701 0
69 70 -56 0
69 -70 56 0
-69 -70 -56 0
-69 70 56 0
70 -691 -699 0
-70 691 0
-70 699 0
71 -72 -80 0
-71 72 0
-71 80 0
-72 73 77 0
72 -73 0
72 -77 0
73 -74 -75 0
-73 74 0
-73 75 0
74 -691 -698 0
-74 691 0
-74 698 0
75 76 -67 0
75 -76 67 0
-75 -76 -67 0
-75 76 67 0
76 -693 -696 0
-76 693 0
-76 696 0
77 -78 -79 0
-77 78 0
-77 79 0
78 -692 -697 0
-78 692 0
-78 697 0
79 74 -75 0
79 -74 75 0
-79 -74 -75 0
-79 74 75 0
80 62 -69 0
80 -62 69 0
-80 -62 -69 0
-80 62 69 0
81 50 -58 0
81 -50 58 0
-81 -50 -58 0
-81 50 58 0
82 31 -43 0
82 -31 43 0
-82 -31 -43 0
-82 31 43 0
83 -84 -297 0
-83 84 0
-83 297 0
-84 85 122 0
84 -85 0
84 -122 0
85 -86 -121 0
-85 86 0
-85 121 0
-86 87 96 0
86 -87 0
86 -96 0
87 -88 -95 0
-87 88 0
-87 95 0
-88 89 90 0
88 -89 0
88 -90 0
89 -689 -690 -699 -700 0
-89 700 0
-89 689 0
-89 699 0
-89 690 0
90 -91 -92 0
-90 91 0
-90 92 0
91 78 -79 0
91 -78 79 0
-91 -78 -79 0
-91 78 79 0
92 89 -93 0
-92 -89 0
-92 93 0
-93 689 94 0
-93 700 94 0
93 -94 0
93 -689 -700 0
94 -690 -699 0
-94 690 0
-94 699 0
95 72 -80 0
95 -72 80 0
-95 -72 -80 0
-95 72 80 0
96 -97 -120 0
-96 97 0
-96 120 0
-97 98 111 0
97 -98 0
97 -111 0
98 -99 -110 0
-98 99 0
-98 110 0
-99 100 101 0
99 -100 0
99 -101 0
100 -688 -691 -697 -700 0
-100 700 0
-100 688 0
-100 697 0
-100 691 0
101 -102 -107 0
-101 102 0
-101 107 0
102 103 -104 0
102 -103 104 0
-102 -103 -104 0
-102 103 104 0
103 -687 -701 0
-103 687 0
-103 701 0
104 105 -106 0
104 -105 106 0
-104 -105 -106 0
-104 105 106 0
105 -690 -698 0
-105 690 0
-105 698 0
106 696 -65 0
106 -692 -696 65 0
-106 692 -696 0
-106 696 65 0
-106 -696 -65 0
107 108 -109 0
107 -108 109 0
-107 -108 -109 0
-107 108 109 0
108 -691 -697 0
-108 691 0
-108 697 0
109 -688 -700 0
-109 688 0
-109 700 0
110 91 -92 0
110 -91 92 0
-110 -91 -92 0
-110 91 92 0
111 -112 -119 0
-111 112 0
-111 119 0
-112 113 114 0
112 -113 0
112 -114 0
113 -689 -693 -695 -699 0
-113 699 0
-113 689 0
-113 695 0
-113 693 0
114 -115 -116 0
-114 115 0
-114 116 0
115 102 -107 0
115 -102 107 0
-115 -102 -107 0
-115 102 107 0
116 117 -118 0
116 -117 118 0
-116 -117 -118 0
-116 117 118 0
117 -693 -695 0
-117 693 0
-117 695 0
118 -689 -699 0
-118 689 0
-118 699 0
119 99 -110 0
119 -99 110 0
-119 -99 -110 0
-119 99 110 0
120 88 -95 0
120 -88 95 0
-120 -88 -95 0
-120 88 95 0
121 60 -81 0
121 -60 81 0
-121 -60 -81 0
-121 60 81 0
122 -123 -296 0
-122 123 0
-122 296 0
-123 124 164 0
123 -124 0
123 -164 0
124 -125 -163 0
-124 125 0
-124 163 0
-125 126 131 0
125 -126 0
125 -131 0
126 -127 -130 0
-126 127 0
-126 130 0
-127 128 129 0
127 -128 0
127 -129 0
128 -690 -698 -106 0
-128 690 0
-128 698 0
-128 106 0
129 -687 -701 -104 0
-129 687 0
-129 701 0
-129 104 0
130 112 -119 0
130 -112 119 0
-130 -112 -119 0
-130 112 119 0
131 -132 -162 0
-131 132 0
-131 162 0
-132 133 157 0
132 -133 0
132 -157 0
133 -134 -140 0
-133 134 0
-133 140 0
-134 135 136 0
134 -135 0
134 -136 0
135 -690 -691 -696 -697 0
-135 697 0
-135 690 0
-135 696 0
-135 691 0
136 -687 -700 -137 0
-136 687 0
-136 700 0
-136 137 0
137 138 -139 0
137 -138 139 0
-137 -138 -139 0
-137 138 139 0
138 -691 -696 0
-138 691 0
-138 696 0
139 -690 -697 0
-139 690 0
-139 697 0
-140 141 142 0
140 -141 0
140 -142 0
141 -686 -688 -699 -701 0
-141 701 0
-141 686 0
-141 699 0
-141 688 0
142 -143 -154 0
-142 143 0
-142 154 0
143 144 -151 0
143 -144 151 0
-143 -144 -151 0
-143 144 151 0
144 145 -146 0
144 -145 146 0
-144 -145 -146 0
-144 145 146 0
145 -689 -698 0
-145 689 0
-145 698 0
146 -691 -147 0
-146 691 0
-146 147 0
147 -148 -149 0
-147 148 0
-147 149 0
148 -690 -695 0
-148 690 0
-148 695 0
149 -689 -150 0
-149 689 0
-149 150 0
150 -686 -688 -695 -697 0
-150 697 0
-150 686 0
-150 695 0
-150 688 0
151 152 -153 0
151 -152 153 0
-151 -152 -153 0
-151 152 153 0
152 -693 -694 0
-152 693 0
-152 694 0
153 -692 -695 0
-153 692 0
-153 695 0
154 155 -156 0
154 -155 156 0
-154 -155 -156 0
-154 155 156 0
155 -688 -699 0
-155 688 0
-155 699 0
156 -686 -701 0
-156 686 0
-156 701 0
157 -158 -161 0
-157 158 0
-157 161 0
-158 159 160 0
158 -159 0
158 -160 0
159 -689 -698 -146 0
-159 689 0
-159 698 0
-159 146 0
160 -144 -151 0
-160 144 0
-160 151 0
161 -134 140 0
161 134 -140 0
-161 134 140 0
-161 -134 -140 0
162 127 -130 0
162 -127 130 0
-162 -127 -130 0
-162 127 130 0
163 97 -120 0
163 -97 120 0
-163 -97 -120 0
-163 97 120 0
164 -165 -295 0
-164 165 0
-164 295 0
-165 166 187 0
165 -166 0
165 -187 0
166 -167 -186 0
-166 167 0
-166 186 0
-167 168 171 0
167 -168 0
167 -171 0
168 -169 -170 0
-168 169 0
-168 170 0
169 115 -116 0
169 -115 116 0
-169 -115 -116 0
-169 115 116 0
170 158 -161 0
170 -158 161 0
-170 -158 -161 0
-170 158 161 0
171 -172 -185 0
-171 172 0
-171 185 0
-172 173 177 0
172 -173 0
172 -177 0
173 -174 -176 0
-173 174 0
-173 176 0
174 175 -137 0
174 -175 137 0
-174 -175 -137 0
-174 175 137 0
175 -687 -700 0
-175 687 0
-175 700 0
176 143 -154 0
176 -143 154 0
-176 -143 -154 0
-176 143 154 0
177 -178 -184 0
-177 178 0
-177 184 0
-178 179 180 0
178 -179 0
178 -180 0
179 -688 -689 -697 -698 0
-179 698 0
-179 688 0
-179 697 0
-179 689 0
180 -687 -699 -181 0
-180 687 0
-180 699 0
-180 181 0
181 182 -183 0
181 -182 183 0
-181 -182 -183 0
-181 182 183 0
182 -688 -698 0
-182 688 0
-182 698 0
183 -689 -697 0
-183 689 0
-183 697 0
184 174 -176 0
184 -174 176 0
-184 -174 -176 0
-184 174 176 0
185 169 -170 0
185 -169 170 0
-185 -169 -170 0
-185 169 170 0
186 132 -162 0
186 -132 162 0
-186 -132 -162 0
-186 132 162 0
187 -188 -294 0
-187 188 0
-187 294 0
-188 189 211 0
188 -189 0
188 -211 0
189 -190 -210 0
-189 190 0
-189 210 0
-190 191 205 0
190 -191 0
190 -205 0
191 -192 -204 0
-191 192 0
-191 204 0
-192 193 197 0
192 -193 0
192 -197 0
193 -194 -195 0
-193 194 0
-193 195 0
194 -686 -700 0
-194 686 0
-194 700 0
195 196 -181 0
195 -196 181 0
-195 -196 -181 0
-195 196 181 0
196 -687 -699 0
-196 687 0
-196 699 0
197 -198 -203 0
-197 198 0
-197 203 0
198 199 -200 0
198 -199 200 0
-198 -199 -200 0
-198 199 200 0
199 -692 -694 0
-199 692 0
-199 694 0
200 201 -202 0
200 -201 202 0
-200 -201 -202 0
-200 201 202 0
201 -690 -696 0
-201 690 0
-201 696 0
202 691 -147 0
202 -691 -695 147 0
-202 -691 -147 0
-202 691 147 0
-202 -691 695 0
203 194 -195 0
203 -194 195 0
-203 -194 -195 0
-203 194 195 0
204 178 -184 0
204 -178 184 0
-204 -178 -184 0
-204 178 184 0
205 -206 -209 0
-205 206 0
-205 209 0
-206 207 208 0
206 -207 0
206 -208 0
207 -690 -696 -202 0
-207 690 0
-207 696 0
-207 202 0
208 -199 -200 0
-208 199 0
-208 200 0
209 192 -204 0
209 -192 204 0
-209 -192 -204 0
-209 192 204 0
210 172 -185 0
210 -172 185 0
-210 -172 -185 0
-210 172 185 0
211 -212 -293 0
-211 212 0
-211 293 0
-212 213 234 0
212 -213 0
212 -234 0
213 -214 -233 0
-213 214 0
-213 233 0
-214 215 223 0
214 -215 0
214 -223 0
215 -216 -222 0
-215 216 0
-215 222 0
-216 217 220 0
216 -217 0
216 -220 0
217 -218 -219 0
-217 218 0
-217 219 0
218 -689 -696 0
-218 689 0
-218 696 0
219 148 -149 0
219 -148 149 0
-219 -148 -149 0
-219 148 149 0
220 -691 -694 -221 0
-220 691 0
-220 694 0
-220 221 0
221 218 -219 0
221 -218 219 0
-221 -218 -219 0
-221 218 219 0
222 198 -203 0
222 -198 203 0
-222 -198 -203 0
-222 198 203 0
223 -224 -232 0
-223 224 0
-223 232 0
-224 225 226 0
224 -225 0
224 -226 0
225 -686 -688 -697 -699 0
-225 699 0
-225 686 0
-225 697 0
-225 688 0
226 -227 -229 0
-226 227 0
-226 229 0
227 228 -221 0
227 -228 221 0
-227 -228 -221 0
-227 228 221 0
228 -691 -694 0
-228 691 0
-228 694 0
229 225 -230 0
-229 -225 0
-229 230 0
-230 686 231 0
-230 699 231 0
230 -231 0
230 -686 -699 0
231 -688 -697 0
-231 688 0
-231 697 0
232 216 -222 0
232 -216 222 0
-232 -216 -222 0
-232 216 222 0
233 206 -209 0
233 -206 209 0
-233 -206 -209 0
-233 206 209 0
234 -235 -292 0
-234 235 0
-234 292 0
-235 236 251 0
235 -236 0
235 -251 0
236 -237 -250 0
-236 237 0
-236 250 0
-237 238 240 0
237 -238 0
237 -240 0
238 -687 -698 -239 0
-238 687 0
-238 698 0
-238 239 0
239 227 -229 0
239 -227 229 0
-239 -227 -229 0
-239 227 229 0
240 -241 -248 0
-240 241 0
-240 248 0
-241 242 244 0
241 -242 0
241 -244 0
242 -688 -696 -243 0
-242 688 0
-242 696 0
-242 243 0
243 689 -150 0
243 -689 -695 150 0
-243 -689 -150 0
-243 689 150 0
-243 -689 695 0
244 -245 -246 0
-244 245 0
-244 246 0
245 -690 -694 0
-245 690 0
-245 694 0
246 247 -243 0
246 -247 243 0
-246 -247 -243 0
-246 247 243 0
247 -688 -696 0
-247 688 0
-247 696 0
248 249 -239 0
248 -249 239 0
-248 -249 -239 0
-248 249 239 0
249 -687 -698 0
-249 687 0
-249 698 0
250 224 -232 0
250 -224 232 0
-250 -224 -232 0
-250 224 232 0
251 -252 -291 0
-251 252 0
-251 291 0
-252 253 262 0
252 -253 0
252 -262 0
253 -254 -261 0
-253 254 0
-253 261 0
-254 255 256 0
254 -255 0
254 -256 0
255 -686 -687 -697 -698 0
-255 698 0
-255 686 0
-255 697 0
-255 687 0
256 -257 -258 0
-256 257 0
-256 258 0
257 245 -246 0
257 -245 246 0
-257 -245 -246 0
-257 245 246 0
258 259 -260 0
258 -259 260 0
-258 -259 -260 0
-258 259 260 0
259 -686 -698 0
-259 686 0
-259 698 0
260 -687 -697 0
-260 687 0
-260 697 0
261 241 -248 0
261 -241 248 0
-261 -241 -248 0
-261 241 248 0
262 -263 -290 0
-262 263 0
-262 290 0
-263 264 269 0
263 -264 0
263 -269 0
264 -265 -268 0
-264 265 0
-264 268 0
-265 266 267 0
265 -266 0
265 -267 0
266 -687 -689 -694 -696 0
-266 696 0
-266 687 0
-266 694 0
-266 689 0
267 -686 -687 -695 -696 0
-267 696 0
-267 686 0
-267 695 0
-267 687 0
268 257 -258 0
268 -257 258 0
-268 -257 -258 0
-268 257 258 0
269 -270 -289 0
-269 270 0
-269 289 0
-270 271 278 0
270 -271 0
270 -278 0
271 -272 -275 0
-271 272 0
-271 275 0
-272 274 -267 0
-272 273 274 0
-272 273 -267 0
-272 -273 -274 267 0
272 273 -274 267 0
272 -273 274 267 0
272 -273 -274 -267 0
273 -687 -696 0
-273 687 0
-273 696 0
274 -689 -694 0
-274 689 0
-274 694 0
275 276 -277 0
275 -276 277 0
-275 -276 -277 0
-275 276 277 0
276 -686 -697 0
-276 686 0
-276 697 0
277 -688 -695 0
-277 688 0
-277 695 0
278 -279 -288 0
-278 279 0
-278 288 0
-279 280 284 0
279 -280 0
279 -284 0
280 -688 -694 -281 0
-280 688 0
-280 694 0
-280 281 0
281 282 -283 0
281 -282 283 0
-281 -282 -283 0
-281 282 283 0
282 -687 -695 0
-282 687 0
-282 695 0
283 -686 -696 0
-283 686 0
-283 696 0
284 -285 -287 0
-284 285 0
-284 287 0
285 286 -281 0
285 -286 281 0
-285 -286 -281 0
-285 286 281 0
286 -688 -694 0
-286 688 0
-286 694 0
287 -686 -687 -694 -695 0
-287 695 0
-287 686 0
-287 694 0
-287 687 0
288 272 -275 0
288 -272 275 0
-288 -272 -275 0
-288 272 275 0
289 265 -268 0
289 -265 268 0
-289 -265 -268 0
-289 265 268 0
290 254 -261 0
290 -254 261 0
-290 -254 -261 0
-290 254 261 0
291 237 -250 0
291 -237 250 0
-291 -237 -250 0
-291 237 250 0
292 214 -233 0
292 -214 233 0
-292 -214 -233 0
-292 214 233 0
293 190 -210 0
293 -190 210 0
-293 -190 -210 0
-293 190 210 0
294 167 -186 0
294 -167 186 0
-294 -167 -186 0
-294 167 186 0
295 125 -163 0
295 -125 163 0
-295 -125 -163 0
-295 125 163 0
296 86 -121 0
296 -86 121 0
-296 -86 -121 0
-296 86 121 0
297 48 -82 0
297 -48 82 0
-297 -48 -82 0
-297 48 82 0
298 21 -44 0
298 -21 44 0
-298 -21 -44 0
-298 21 44 0
299 6 -8 0
299 -6 7 8 0
-299 -7 8 0
-299 -6 -8 0
-299 6 8 0
-300 301 531 0
-300 -301 -531 0
300 -301 531 0
300 301 -531 0
301 -302 459 0
-301 302 0
-301 -459 0
-302 303 457 0
302 -303 0
302 -457 0
303 -304 388 0
303 304 -388 0
-303 304 388 0
-303 -304 -388 0
-304 305 387 0
304 -305 0
304 -387 0
305 -4 306 0
-305 4 0
-305 -306 0
-306 307 308 0
306 -307 0
306 -308 0
307 -6 -7 0
-307 6 0
-307 7 0
308 -309 -386 0
-308 309 0
-308 386 0
-309 310 318 0
309 -310 0
309 -318 0
310 -9 -311 0
-310 9 0
-310 311 0
311 -312 -316 0
-311 312 0
-311 316 0
312 -313 -315 0
-312 313 0
-312 315 0
-313 700 34 314 0
-313 691 34 314 0
313 -314 0
313 -34 0
313 -691 -700 0
-314 693 27 0
-314 698 27 0
314 -27 0
314 -693 -698 0
315 -38 -39 0
-315 38 0
-315 39 0
-316 7 317 0
316 -7 0
316 -317 0
-317 691 16 0
-317 701 16 0
317 -16 0
317 -691 -701 0
318 -319 -385 0
-318 319 0
-318 385 0
319 -320 -321 0
-319 320 0
-319 321 0
-320 312 316 0
320 -312 0
320 -316 0
-321 322 -330 0
-321 320 322 0
-321 322 329 0
321 -322 0
321 -320 -329 330 0
322 -316 -323 0
-322 316 0
-322 323 0
323 -324 -325 0
-323 324 0
-323 325 0
324 313 -315 0
324 -313 315 0
-324 -313 -315 0
-324 313 315 0
325 -326 -328 0
-325 326 0
-325 328 0
-326 78 327 0
-326 74 78 0
-326 74 327 0
326 -74 -78 0
326 -78 -327 0
326 -74 -327 0
-327 693 68 0
-327 696 68 0
327 -68 0
327 -693 -696 0
-328 38 39 57 70 0
328 -39 0
328 -70 0
328 -38 0
328 -57 0
329 324 -325 0
329 -324 325 0
-329 -324 -325 0
-329 324 325 0
330 329 -337 0
330 331 -332 337 0
330 -329 332 337 0
-330 -329 -337 0
-330 329 332 337 0
-330 -331 -332 337 0
-331 324 325 0
331 -324 0
331 -325 0
332 -333 -336 0
-332 333 0
-332 336 0
-333 89 93 0
-333 89 334 0
333 -89 0
333 -93 -334 0
-334 78 335 0
334 -78 0
334 -335 0
-335 74 327 0
335 -74 0
335 -327 0
336 -326 328 0
336 326 -328 0
-336 326 328 0
-336 -326 -328 0
337 -338 -339 0
-337 338 0
-337 339 0
338 333 -336 0
338 -333 336 0
-338 -333 -336 0
-338 333 336 0
339 -340 -384 0
-339 340 0
-339 384 0
-340 341 360 0
340 -341 0
340 -360 0
341 -342 -356 0
-341 342 0
-341 356 0
-342 343 352 0
342 -343 0
342 -352 0
343 -344 -349 0
-343 344 0
-343 349 0
-344 687 345 346 0
-344 700 345 346 0
344 -346 0
344 -345 0
344 -687 -700 0
-345 691 139 0
-345 696 139 0
345 -139 0
345 -691 -696 0
-346 689 347 348 0
-346 698 347 348 0
346 -348 0
346 -347 0
346 -689 -698 0
-347 692 152 0
-347 695 152 0
347 -152 0
347 -692 -695 0
-348 686 155 0
-348 701 155 0
348 -155 0
348 -686 -701 0
349 -194 -350 0
-349 194 0
-349 350 0
-350 699 351 0
-350 687 351 0
350 -351 0
350 -687 -699 0
-351 689 182 0
-351 697 182 0
351 -182 0
351 -689 -697 0
352 -353 -354 0
-352 353 0
-352 354 0
353 344 -349 0
353 -344 349 0
-353 -344 -349 0
-353 344 349 0
354 -199 -355 0
-354 199 0
-354 355 0
-355 691 201 0
-355 695 201 0
355 -201 0
355 -691 -695 0
-356 103 357 358 359 0
356 -103 0
356 -359 0
356 -358 0
356 -357 0
-357 691 109 0
-357 697 109 0
357 -109 0
357 -691 -697 0
-358 689 117 0
-358 699 117 0
358 -117 0
358 -689 -699 0
-359 692 105 0
-359 696 105 0
359 -105 0
359 -692 -696 0
360 -361 -383 0
-360 361 0
-360 383 0
-361 362 371 0
361 -362 0
361 -371 0
362 -363 -370 0
-362 363 0
-362 370 0
-363 364 365 0
363 -364 0
363 -365 0
364 -148 -218 0
-364 148 0
-364 218 0
365 -366 -368 0
-365 366 0
-365 368 0
-366 225 230 0
-366 225 367 0
366 -225 0
366 -230 -367 0
-367 691 148 218 0
-367 694 148 218 0
367 -218 0
367 -148 0
367 -691 -694 0
368 364 -369 0
368 -355 364 0
368 -199 364 0
-368 -364 0
-368 199 355 369 0
-369 194 350 0
369 -194 0
369 -350 0
370 353 -354 0
370 -353 354 0
-370 -353 -354 0
-370 353 354 0
371 -372 -382 0
-371 372 0
-371 382 0
372 -373 -374 0
-372 373 0
-372 374 0
373 366 -368 0
373 -366 368 0
-373 -366 -368 0
-373 366 368 0
374 -375 -379 0
-374 375 0
-374 379 0
375 376 -378 0
375 365 -376 0
375 -249 376 0
-375 -365 -376 0
-375 249 376 378 0
376 -245 -377 0
-376 245 0
-376 377 0
-377 689 247 0
-377 695 247 0
377 -247 0
377 -689 -695 0
-378 230 367 0
378 -230 0
378 -367 0
379 -380 -381 0
-379 380 0
-379 381 0
-380 687 259 0
-380 697 259 0
380 -259 0
380 -687 -697 0
-381 245 377 0
381 -245 0
381 -377 0
382 363 -370 0
382 -363 370 0
-382 -363 -370 0
-382 363 370 0
383 -342 356 0
383 342 -356 0
-383 342 356 0
-383 -342 -356 0
-384 93 334 0
384 -93 0
384 -334 0
385 9 -311 0
385 -9 311 0
-385 -9 -311 0
-385 9 311 0
386 -6 7 0
-386 6 0
-386 -7 0
387 4 -306 0
-387 -4 0
-387 306 0
-388 -389 456 0
-388 392 456 0
388 -456 0
388 389 -392 0
389 -390 391 0
-389 390 0
-389 -391 0
390 309 -386 0
390 -309 386 0
-390 -309 -386 0
-390 309 386 0
391 19 -299 0
391 -19 299 0
-391 -19 -299 0
-391 19 299 0
-392 393 455 0
-392 -452 455 0
392 -455 0
392 -393 452 0
-393 394 451 0
-393 -396 451 0
393 -451 0
393 -394 396 0
-394 321 395 0
394 -321 0
394 -395 0
395 84 -297 0
395 -84 297 0
-395 -84 -297 0
-395 84 297 0
396 -397 450 0
396 -399 450 0
-396 -450 0
-396 397 399 0
397 -330 398 0
-397 330 0
-397 -398 0
398 123 -296 0
398 -123 296 0
-398 -123 -296 0
-398 123 296 0
399 -400 449 0
399 -403 449 0
-399 -449 0
-399 400 403 0
400 -401 402 0
-400 401 0
-400 -402 0
401 338 -339 0
401 -338 339 0
-401 -338 -339 0
-401 338 339 0
402 165 -295 0
402 -165 295 0
-402 -165 -295 0
-402 165 295 0
403 -404 448 0
403 -407 448 0
-403 -448 0
-403 404 407 0
404 -405 406 0
-404 405 0
-404 -406 0
405 -340 384 0
405 340 -384 0
-405 340 384 0
-405 -340 -384 0
406 188 -294 0
406 -188 294 0
-406 -188 -294 0
-406 188 294 0
407 -408 447 0
407 -411 447 0
-407 -447 0
-407 408 411 0
408 -409 410 0
-408 409 0
-408 -410 0
409 361 -383 0
409 -361 383 0
-409 -361 -383 0
-409 361 383 0
410 212 -293 0
410 -212 293 0
-410 -212 -293 0
-410 212 293 0
411 -412 446 0
411 -415 446 0
-411 -446 0
-411 412 415 0
412 -413 414 0
-412 413 0
-412 -414 0
413 372 -382 0
413 -372 382 0
-413 -372 -382 0
-413 372 382 0
414 235 -292 0
414 -235 292 0
-414 -235 -292 0
-414 235 292 0
415 -416 445 0
415 -420 445 0
-415 -445 0
-415 416 420 0
416 -417 419 0
-416 417 0
-416 -419 0
417 -418 374 0
417 373 -374 0
417 -373 374 0
-417 -373 -374 0
-417 373 418 374 0
418 -365 -376 0
-418 365 0
-418 376 0
419 252 -291 0
419 -252 291 0
-419 -252 -291 0
-419 252 291 0
420 -421 444 0
420 -424 444 0
-420 -444 0
-420 421 424 0
421 -422 423 0
-421 422 0
-421 -423 0
422 375 -379 0
422 -375 379 0
-422 -375 -379 0
-422 375 379 0
423 263 -290 0
423 -263 290 0
-423 -263 -290 0
-423 263 290 0
424 -425 443 0
424 -428 443 0
-424 -443 0
-424 425 428 0
425 -426 427 0
-425 426 0
-425 -427 0
-426 380 381 0
426 -380 0
426 -381 0
427 270 -289 0
427 -270 289 0
-427 -270 -289 0
-427 270 289 0
428 -429 442 0
428 -434 442 0
-428 -442 0
-428 429 434 0
429 -430 433 0
-429 430 0
-429 -433 0
-430 431 432 0
430 -431 0
430 -432 0
-431 689 273 0
-431 694 273 0
431 -273 0
431 -689 -694 0
-432 688 276 0
-432 695 276 0
432 -276 0
432 -688 -695 0
433 279 -288 0
433 -279 288 0
-433 -279 -288 0
-433 279 288 0
434 -435 441 0
434 -439 441 0
-434 -441 0
-434 435 439 0
435 -436 438 0
-435 436 0
-435 -438 0
-436 694 437 0
-436 688 437 0
436 -437 0
436 -688 -694 0
-437 686 282 0
-437 696 282 0
437 -282 0
437 -686 -696 0
438 285 -287 0
438 -285 287 0
-438 -285 -287 0
-438 285 287 0
439 -440 0
-439 440 0
440 -686 -687 -694 -695 0
-440 695 0
-440 686 0
-440 694 0
-440 687 0
441 436 -438 0
-441 -436 0
-441 438 0
442 430 -433 0
-442 -430 0
-442 433 0
443 426 -427 0
-443 -426 0
-443 427 0
444 422 -423 0
-444 -422 0
-444 423 0
445 417 -419 0
-445 -417 0
-445 419 0
446 413 -414 0
-446 -413 0
-446 414 0
447 409 -410 0
-447 -409 0
-447 410 0
448 405 -406 0
-448 -405 0
-448 406 0
449 401 -402 0
-449 -401 0
-449 402 0
450 330 -398 0
-450 -330 0
-450 398 0
451 -321 -395 0
-451 321 0
-451 395 0
452 -453 454 0
-452 453 0
-452 -454 0
453 319 -385 0
453 -319 385 0
-453 -319 -385 0
-453 319 385 0
454 46 -298 0
454 -46 298 0
-454 -46 -298 0
-454 46 298 0
455 453 -454 0
-455 -453 0
-455 454 0
456 390 -391 0
-456 -390 0
-456 391 0
-457 393 458 0
-457 -393 -458 0
457 -393 458 0
457 393 -458 0
-458 452 455 0
458 -452 0
458 -455 0
459 460 -530 0
-459 -460 0
-459 530 0
460 -461 466 0
-460 461 0
-460 -466 0
-461 462 464 0
461 -462 0
461 -464 0
-462 -396 -463 0
-462 396 463 0
462 396 -463 0
462 -396 463 0
463 -394 451 0
-463 394 0
-463 -451 0
-464 392 465 0
-464 -392 -465 0
464 -392 465 0
464 392 -465 0
-465 389 456 0
465 -389 0
465 -456 0
466 -467 -529 0
-466 467 0
-466 529 0
-467 468 471 0
467 -468 0
467 -471 0
468 457 -469 0
-468 -457 0
-468 469 0
469 -399 470 0
469 399 -470 0
-469 399 470 0
-469 -399 -470 0
-470 397 450 0
470 -397 0
470 -450 0
471 -472 528 0
-471 472 0
-471 -528 0
-472 473 476 0
472 -473 0
472 -476 0
473 462 -474 0
-473 -462 0
-473 474 0
474 -403 475 0
474 403 -475 0
-474 403 475 0
-474 -403 -475 0
-475 400 449 0
475 -400 0
475 -449 0
476 -477 527 0
-476 477 0
-476 -527 0
-477 478 481 0
477 -478 0
477 -481 0
478 -469 -479 0
-478 469 0
-478 479 0
479 -407 480 0
479 407 -480 0
-479 407 480 0
-479 -407 -480 0
-480 404 448 0
480 -404 0
480 -448 0
481 -482 -526 0
-481 482 0
-481 526 0
-482 483 486 0
482 -483 0
482 -486 0
483 -474 -484 0
-483 474 0
-483 484 0
484 -411 485 0
484 411 -485 0
-484 411 485 0
-484 -411 -485 0
-485 408 447 0
485 -408 0
485 -447 0
486 -487 -525 0
-486 487 0
-486 525 0
-487 488 491 0
487 -488 0
487 -491 0
488 -479 -489 0
-488 479 0
-488 489 0
489 -415 490 0
489 415 -490 0
-489 415 490 0
-489 -415 -490 0
-490 412 446 0
490 -412 0
490 -446 0
491 -492 -524 0
-491 492 0
-491 524 0
-492 493 496 0
492 -493 0
492 -496 0
493 -484 -494 0
-493 484 0
-493 494 0
494 -420 495 0
494 420 -495 0
-494 420 495 0
-494 -420 -495 0
-495 416 445 0
495 -416 0
495 -445 0
496 -497 -523 0
-496 497 0
-496 523 0
-497 498 501 0
497 -498 0
497 -501 0
498 -489 -499 0
-498 489 0
-498 499 0
499 -424 500 0
499 424 -500 0
-499 424 500 0
-499 -424 -500 0
-500 421 444 0
500 -421 0
500 -444 0
501 -502 -522 0
-501 502 0
-501 522 0
-502 503 506 0
502 -503 0
502 -506 0
503 -494 -504 0
-503 494 0
-503 504 0
504 -428 505 0
504 428 -505 0
-504 428 505 0
-504 -428 -505 0
-505 425 443 0
505 -425 0
505 -443 0
506 -507 -521 0
-506 507 0
-506 521 0
-507 508 511 0
507 -508 0
507 -511 0
508 -499 -509 0
-508 499 0
-508 509 0
509 -434 510 0
509 434 -510 0
-509 434 510 0
-509 -434 -510 0
-510 429 442 0
510 -429 0
510 -442 0
511 -512 -520 0
-511 512 0
-511 520 0
-512 513 516 0
512 -513 0
512 -516 0
513 -504 -514 0
-513 504 0
-513 514 0
514 -439 515 0
514 439 -515 0
-514 439 515 0
-514 -439 -515 0
-515 435 441 0
515 -435 0
515 -441 0
516 -517 -519 0
-516 517 0
-516 519 0
517 -509 -518 0
-517 509 0
-517 518 0
-518 440 0
518 -440 0
519 504 -514 0
519 -504 514 0
-519 -504 -514 0
-519 504 514 0
520 499 -509 0
520 -499 509 0
-520 -499 -509 0
-520 499 509 0
521 494 -504 0
521 -494 504 0
-521 -494 -504 0
-521 494 504 0
522 489 -499 0
522 -489 499 0
-522 -489 -499 0
-522 489 499 0
523 484 -494 0
523 -484 494 0
-523 -484 -494 0
-523 484 494 0
524 479 -489 0
524 -479 489 0
-524 -479 -489 0
-524 479 489 0
525 474 -484 0
525 -474 484 0
-525 -474 -484 0
-525 474 484 0
526 469 -479 0
526 -469 479 0
-526 -469 -479 0
-526 469 479 0
-527 -462 -474 0
-527 462 474 0
527 462 -474 0
527 -462 474 0
-528 -457 -469 0
-528 457 469 0
528 457 -469 0
528 -457 469 0
529 -462 464 0
529 462 -464 0
-529 462 464 0
-529 -462 -464 0
530 -303 457 0
530 303 -457 0
-530 303 457 0
-530 -303 -457 0
-531 464 532 0
-531 -464 -532 0
531 -464 532 0
531 464 -532 0
-532 305 -387 0
-532 305 388 0
532 -305 0
532 387 -388 0
-533 534 535 0
-533 391 535 0
533 -535 0
533 -391 -534 0
-534 -460 -530 0
-534 460 530 0
534 460 -530 0
534 -460 530 0
535 -454 536 -564 0
535 -454 -537 -564 0
535 536 -537 -564 0
-535 454 -536 0
-535 -536 537 0
-535 564 0
-535 454 537 0
536 467 -529 0
536 -467 529 0
-536 -467 -529 0
-536 467 529 0
-537 538 539 0
-537 395 539 0
537 -539 0
537 -395 -538 0
-538 472 528 0
-538 -472 -528 0
538 -472 528 0
538 472 -528 0
539 -398 -540 -563 0
539 -398 541 -563 0
539 -540 541 -563 0
-539 540 -541 0
-539 398 -541 0
-539 563 0
-539 398 540 0
-540 477 527 0
-540 -477 -527 0
540 -477 527 0
540 477 -527 0
-541 -402 543 0
-541 -402 542 0
-541 542 543 0
541 -542 -543 0
541 402 -543 0
541 402 -542 0
542 482 -526 0
542 -482 526 0
-542 -482 -526 0
-542 482 526 0
-543 -406 545 0
-543 -406 544 0
-543 544 545 0
543 -544 -545 0
543 406 -545 0
543 406 -544 0
544 487 -525 0
544 -487 525 0
-544 -487 -525 0
-544 487 525 0
-545 -410 547 0
-545 -410 546 0
-545 546 547 0
545 -546 -547 0
545 410 -547 0
545 410 -546 0
546 492 -524 0
546 -492 524 0
-546 -492 -524 0
-546 492 524 0
-547 -414 549 0
-547 -414 548 0
-547 548 549 0
547 -548 -549 0
547 414 -549 0
547 414 -548 0
548 497 -523 0
548 -497 523 0
-548 -497 -523 0
-548 497 523 0
-549 -419 551 0
-549 -419 550 0
-549 550 551 0
549 -550 -551 0
549 419 -551 0
549 419 -550 0
550 502 -522 0
550 -502 522 0
-550 -502 -522 0
-550 502 522 0
-551 -423 552 0
-551 -423 -507 -521 0
-551 507 521 552 0
-551 -423 507 521 0
-551 -507 -521 552 0
551 423 -552 0
551 507 -521 -552 0
551 423 507 -521 0
551 -507 521 -552 0
551 423 -507 521 0
-552 -427 553 0
-552 553 562 0
-552 -427 562 0
552 -553 -562 0
552 427 -553 0
552 427 -562 0
-553 -433 555 0
-553 -433 554 0
-553 554 555 0
553 -554 -555 0
553 433 -555 0
553 433 -554 0
554 517 -519 0
554 -517 519 0
-554 -517 -519 0
-554 517 519 0
-555 -438 557 0
-555 -438 556 0
-555 556 557 0
555 -556 -557 0
555 438 -557 0
555 438 -556 0
556 -509 518 0
556 509 -518 0
-556 509 518 0
-556 -509 -518 0
-557 514 561 0
-557 -558 514 0
-557 -558 561 0
557 558 -514 0
557 -514 -561 0
557 558 -561 0
558 287 -559 0
-558 -287 0
-558 559 0
-559 687 560 0
-559 694 560 0
559 -560 0
559 -687 -694 0
560 -686 -695 0
-560 686 0
-560 695 0
561 686 -518 0
561 694 -518 0
-561 518 0
-561 -686 -694 0
562 512 -520 0
562 -512 520 0
-562 -512 -520 0
-562 512 520 0
-563 395 538 0
563 -395 0
563 -538 0
-564 391 534 0
564 -391 0
564 -534 0
565 566 -532 567 0
-565 -566 0
-565 -567 0
-565 532 0
566 -304 -388 0
-566 304 0
-566 388 0
567 301 -531 0
-567 -301 0
-567 531 0
568 -454 -569 666 0
568 -454 -659 666 0
568 -569 -659 666 0
-568 569 659 0
-568 454 569 0
-568 -666 0
-568 454 659 0
569 -395 -638 0
569 -395 570 0
569 570 -638 0
-569 -570 638 0
-569 395 638 0
-569 395 -570 0
570 -571 590 0
570 571 -590 0
-570 571 590 0
-570 -571 -590 0
571 572 -587 0
571 -572 587 0
-571 -572 -587 0
-571 572 587 0
572 470 -573 0
572 -470 573 0
-572 -470 -573 0
-572 470 573 0
573 400 -574 0
-573 -400 0
-573 574 0
-574 449 575 0
574 -449 0
574 -575 0
575 404 -576 0
-575 -404 0
-575 576 0
-576 448 577 0
576 -448 0
576 -577 0
577 408 -578 0
-577 -408 0
-577 578 0
-578 447 579 0
578 -447 0
578 -579 0
579 412 -446 0
579 412 -580 0
-579 -412 0
-579 446 580 0
580 416 -445 0
580 416 -581 0
-580 -416 0
-580 445 581 0
581 421 -582 0
-581 -421 0
-581 582 0
-582 444 583 0
582 -444 0
582 -583 0
583 425 -443 0
583 425 -584 0
-583 -425 0
-583 443 584 0
584 429 -585 0
-584 -429 0
-584 585 0
-585 442 586 0
585 -442 0
585 -586 0
586 435 -441 0
-586 -435 0
-586 441 0
587 458 -588 0
587 -458 588 0
-587 -458 -588 0
-587 458 588 0
588 -394 -451 0
588 -394 -589 0
-588 394 0
-588 451 589 0
589 397 -450 0
589 397 -573 0
-589 -397 0
-589 450 573 0
-590 591 594 0
590 -591 0
590 -594 0
591 592 -593 0
-591 -592 0
-591 593 0
-592 -463 -589 0
-592 463 589 0
592 463 -589 0
592 -463 589 0
593 475 -575 0
593 -475 575 0
-593 -475 -575 0
-593 475 575 0
594 -595 637 0
-594 595 0
-594 -637 0
-595 596 598 0
595 -596 0
595 -598 0
596 -572 -597 0
-596 572 0
-596 597 0
597 480 -577 0
597 -480 577 0
-597 -480 -577 0
-597 480 577 0
598 -599 -636 0
-598 599 0
-598 636 0
-599 600 602 0
599 -600 0
599 -602 0
600 -593 -601 0
-600 593 0
-600 601 0
601 485 -579 0
601 -485 579 0
-601 -485 -579 0
-601 485 579 0
602 -603 -635 0
-602 603 0
-602 635 0
-603 604 606 0
603 -604 0
603 -606 0
604 -597 -605 0
-604 597 0
-604 605 0
605 490 -580 0
605 -490 580 0
-605 -490 -580 0
-605 490 580 0
606 -607 -634 0
-606 607 0
-606 634 0
-607 608 610 0
607 -608 0
607 -610 0
608 -601 -609 0
-608 601 0
-608 609 0
609 495 -581 0
609 -495 581 0
-609 -495 -581 0
-609 495 581 0
610 -611 -633 0
-610 611 0
-610 633 0
-611 612 614 0
611 -612 0
611 -614 0
612 -605 -613 0
-612 605 0
-612 613 0
613 500 -583 0
613 -500 583 0
-613 -500 -583 0
-613 500 583 0
614 -615 -632 0
-614 615 0
-614 632 0
-615 616 618 0
615 -616 0
615 -618 0
616 -609 -617 0
-616 609 0
-616 617 0
617 505 -584 0
617 -505 584 0
-617 -505 -584 0
-617 505 584 0
618 -619 -631 0
-618 619 0
-618 631 0
-619 620 622 0
619 -620 0
619 -622 0
620 -613 -621 0
-620 613 0
-620 621 0
621 510 -586 0
621 -510 586 0
-621 -510 -586 0
-621 510 586 0
622 -623 -630 0
-622 623 0
-622 630 0
-623 624 627 0
623 -624 0
623 -627 0
624 -617 -625 0
-624 617 0
-624 625 0
625 -626 0
-625 626 0
-626 515 0
626 -515 0
627 -628 -629 0
-627 628 0
-627 629 0
628 -518 -621 0
-628 518 0
-628 621 0
629 617 -625 0
629 -617 625 0
-629 -617 -625 0
-629 617 625 0
630 613 -621 0
630 -613 621 0
-630 -613 -621 0
-630 613 621 0
631 609 -617 0
631 -609 617 0
-631 -609 -617 0
-631 609 617 0
632 605 -613 0
632 -605 613 0
-632 -605 -613 0
-632 605 613 0
633 601 -609 0
633 -601 609 0
-633 -601 -609 0
-633 601 609 0
634 597 -605 0
634 -597 605 0
-634 -597 -605 0
-634 597 605 0
635 593 -601 0
635 -593 601 0
-635 -593 -601 0
-635 593 601 0
636 572 -597 0
636 -572 597 0
-636 -572 -597 0
-636 572 597 0
-637 -592 -593 0
-637 592 593 0
637 592 -593 0
637 -592 593 0
638 -398 640 0
638 -398 -639 0
638 -639 640 0
-638 639 -640 0
-638 398 -640 0
-638 398 639 0
-639 595 637 0
-639 -595 -637 0
639 -595 637 0
639 595 -637 0
-640 -402 642 0
-640 -402 641 0
-640 641 642 0
640 -641 -642 0
640 402 -642 0
640 402 -641 0
641 599 -636 0
641 -599 636 0
-641 -599 -636 0
-641 599 636 0
-642 -406 644 0
-642 -406 643 0
-642 643 644 0
642 -643 -644 0
642 406 -644 0
642 406 -643 0
643 603 -635 0
643 -603 635 0
-643 -603 -635 0
-643 603 635 0
-644 -410 646 0
-644 -410 645 0
-644 645 646 0
644 -645 -646 0
644 410 -646 0
644 410 -645 0
645 607 -634 0
645 -607 634 0
-645 -607 -634 0
-645 607 634 0
-646 -414 648 0
-646 -414 647 0
-646 647 648 0
646 -647 -648 0
646 414 -648 0
646 414 -647 0
647 611 -633 0
647 -611 633 0
-647 -611 -633 0
-647 611 633 0
-648 -419 650 0
-648 -419 649 0
-648 649 650 0
648 -649 -650 0
648 419 -650 0
648 419 -649 0
649 615 -632 0
649 -615 632 0
-649 -615 -632 0
-649 615 632 0
-650 -423 651 0
-650 -423 -619 -631 0
-650 619 631 651 0
-650 -423 619 631 0
-650 -619 -631 651 0
650 423 -651 0
650 619 -631 -651 0
650 423 619 -631 0
650 -619 631 -651 0
650 423 -619 631 0
-651 -427 652 0
-651 652 658 0
-651 -427 658 0
651 -652 -658 0
651 427 -652 0
651 427 -658 0
-652 -433 654 0
-652 -433 653 0
-652 653 654 0
652 -653 -654 0
652 433 -654 0
652 433 -653 0
653 628 -629 0
653 -628 629 0
-653 -628 -629 0
-653 628 629 0
-654 -438 656 0
-654 -438 655 0
-654 655 656 0
654 -655 -656 0
654 438 -656 0
654 438 -655 0
655 518 -621 0
655 -518 621 0
-655 -518 -621 0
-655 518 621 0
-656 625 657 0
-656 -558 625 0
-656 -558 657 0
656 558 -625 0
656 -625 -657 0
656 558 -657 0
657 686 -518 0
657 694 -518 0
-657 518 0
-657 -686 -694 0
658 623 -630 0
658 -623 630 0
-658 -623 -630 0
-658 623 630 0
-659 660 663 0
-659 -660 -663 0
659 -660 663 0
659 660 -663 0
-660 -592 -661 0
-660 592 661 0
660 592 -661 0
660 -592 661 0
661 465 -662 0
661 -465 662 0
-661 -465 -662 0
-661 465 662 0
662 452 -455 0
662 452 -588 0
-662 -452 0
-662 455 588 0
-663 664 665 0
663 -664 0
663 -665 0
664 -572 -587 0
-664 572 0
-664 587 0
665 -571 -590 0
-665 571 0
-665 590 0
666 391 -667 0
-666 -391 0
-666 667 0
667 -668 672 0
667 668 -672 0
-667 668 672 0
-667 -668 -672 0
668 587 -669 0
668 -587 669 0
-668 -587 -669 0
-668 587 669 0
669 304 -670 0
669 -304 670 0
-669 -304 -670 0
-669 304 670 0
670 389 -671 0
-670 -389 0
-670 671 0
-671 456 662 0
671 -456 0
671 -662 0
-672 673 674 0
672 -673 0
672 -674 0
673 592 -661 0
-673 -592 0
-673 661 0
674 660 -663 0
-674 -660 0
-674 663 0
-675 4 391 0
-675 -667 -676 0
-675 391 -676 0
-675 4 -667 0
675 -391 667 0
675 -4 676 0
676 -677 680 0
676 677 -680 0
-676 677 680 0
-676 -677 -680 0
677 -661 678 0
677 661 -678 0
-677 661 678 0
-677 -661 -678 0
-678 305 679 0
678 -305 0
678 -679 0
679 387 -670 0
-679 -387 0
-679 670 0
-680 681 682 0
680 -681 0
680 -682 0
681 -587 -669 0
-681 587 0
-681 669 0
682 -668 -672 0
-682 668 0
-682 672 0
-683 -4 677 684 0
-683 -4 680 684 0
-683 677 680 684 0
683 4 -677 0
683 -677 -680 0
683 -684 0
683 4 -680 0
-684 685 670 0
-684 -387 -670 0
684 -685 670 0
684 387 -670 0
-685 304 388 0
685 -304 0
685 -388 0
-702 0
-2 0

